experiment/data/hgs-res/Vrp-Set-X-n120/Vrp-Set-X-n120-hgs/0.hgs1.vrp
NAME : 0
COMMENT : CVRP Instance
TYPE : CVRP
DIMENSION : 120
EDGE_WEIGHT_TYPE : EUC_2D
CAPACITY : 21
NODE_COORD_SECTION
1	0.0	0.0
2	927.0	318.0
3	319.0	475.0
4	471.0	281.0
5	894.0	615.0
6	712.0	832.0
7	677.0	210.0
8	336.0	967.0
9	490.0	360.0
10	367.0	685.0
11	153.0	169.0
12	799.0	63.0
13	247.0	455.0
14	492.0	585.0
15	131.0	701.0
16	309.0	721.0
17	210.0	256.0
18	511.0	753.0
19	447.0	796.0
20	394.0	856.0
21	131.0	13.0
22	181.0	425.0
23	892.0	585.0
24	161.0	651.0
25	964.0	365.0
26	82.0	353.0
27	706.0	842.0
28	793.0	53.0
29	364.0	841.0
30	126.0	306.0
31	86.0	477.0
32	51.0	277.0
33	192.0	360.0
34	52.0	568.0
35	682.0	45.0
36	778.0	300.0
37	10.0	737.0
38	928.0	438.0
39	95.0	240.0
40	391.0	368.0
41	586.0	170.0
42	645.0	731.0
43	381.0	396.0
44	387.0	491.0
45	388.0	753.0
46	429.0	276.0
47	547.0	989.0
48	840.0	945.0
49	88.0	969.0
50	331.0	421.0
51	55.0	132.0
52	904.0	771.0
53	63.0	190.0
54	731.0	528.0
55	320.0	84.0
56	308.0	276.0
57	891.0	182.0
58	836.0	473.0
59	209.0	741.0
60	864.0	533.0
61	852.0	600.0
62	180.0	150.0
63	544.0	140.0
64	956.0	881.0
65	432.0	487.0
66	129.0	968.0
67	597.0	962.0
68	51.0	423.0
69	827.0	605.0
70	776.0	619.0
71	354.0	297.0
72	311.0	129.0
73	552.0	106.0
74	24.0	318.0
75	148.0	944.0
76	502.0	869.0
77	396.0	492.0
78	815.0	500.0
79	425.0	338.0
80	178.0	511.0
81	168.0	274.0
82	775.0	603.0
83	481.0	465.0
84	281.0	777.0
85	216.0	211.0
86	784.0	740.0
87	127.0	992.0
88	544.0	117.0
89	92.0	170.0
90	846.0	755.0
91	614.0	326.0
92	180.0	372.0
93	720.0	252.0
94	262.0	291.0
95	171.0	186.0
96	868.0	613.0
97	291.0	119.0
98	427.0	974.0
99	481.0	557.0
100	403.0	645.0
101	819.0	502.0
102	915.0	919.0
103	581.0	85.0
104	527.0	743.0
105	953.0	893.0
106	955.0	912.0
107	269.0	924.0
108	216.0	84.0
109	601.0	952.0
110	441.0	439.0
111	170.0	949.0
112	614.0	92.0
113	439.0	212.0
114	413.0	509.0
115	545.0	336.0
116	50.0	806.0
117	166.0	86.0
118	658.0	870.0
119	122.0	511.0
120	178.0	170.0
DEMAND_SECTION
1	0
2	1
3	1
4	1
5	1
6	1
7	1
8	1
9	1
10	1
11	1
12	1
13	1
14	1
15	1
16	1
17	1
18	1
19	1
20	1
21	1
22	1
23	1
24	1
25	1
26	1
27	1
28	1
29	1
30	1
31	1
32	1
33	1
34	1
35	1
36	1
37	1
38	1
39	1
40	1
41	1
42	1
43	1
44	1
45	1
46	1
47	1
48	1
49	1
50	1
51	1
52	1
53	1
54	1
55	1
56	1
57	1
58	1
59	1
60	1
61	1
62	1
63	1
64	1
65	1
66	1
67	1
68	1
69	1
70	1
71	1
72	1
73	1
74	1
75	1
76	1
77	1
78	1
79	1
80	1
81	1
82	1
83	1
84	1
85	1
86	1
87	1
88	1
89	1
90	1
91	1
92	1
93	1
94	1
95	1
96	1
97	1
98	1
99	1
100	1
101	1
102	1
103	1
104	1
105	1
106	1
107	1
108	1
109	1
110	1
111	1
112	1
113	1
114	1
115	1
116	1
117	1
118	1
119	1
120	1
DEPOT_SECTION
1
-1
EOF
