experiment/data/hgs-res/Vrp-Set-X-n120/Vrp-Set-X-n120-hgs/0.hgs1.log
=========== Algorithm Parameters =================
---- nbGranular        is set to 20
---- mu                is set to 25
---- lambda            is set to 40
---- nbElite           is set to 4
---- nbClose           is set to 5
---- targetFeasible    is set to 0.2
---- seed              is set to 1234
---- nbIter            is set to 20000
---- timeLimit         is set to 0
---- useSwapStar       is set to 1
==================================================
----- READING INSTANCE: baseline_results/cvrp_hgs/Vrp-Set-X-n120/Vrp-Set-X-n120-hgs/0.hgs1.vrp
----- FLEET SIZE WAS NOT SPECIFIED: DEFAULT INITIALIZATION TO 11 VEHICLES
----- INSTANCE SUCCESSFULLY LOADED WITH 119 CLIENTS AND 11 VEHICLES
----- BUILDING INITIAL POPULATION
----- STARTING GENETIC ALGORITHM
It      0      2 | T(s) 0.18 | Feas 60 13624.27 13763.96 | NO-INFEASIBLE | Div 0.35 -1.00 | Feas 1.00 1.00 | Pen 850.00 0.85
It    500     41 | T(s) 0.70 | Feas 27 13363.42 13511.56 | NO-INFEASIBLE | Div 0.37 -1.00 | Feas 1.00 1.00 | Pen 377.15 0.38
It   1000    256 | T(s) 1.19 | Feas 30 13335.79 13400.31 | Inf 10 13442.04 13627.87 | Div 0.29 0.19 | Feas 0.92 1.00 | Pen 167.34 0.17
It   1500    756 | T(s) 1.75 | Feas 34 13335.79 13384.54 | Inf 55 13075.81 13296.44 | Div 0.29 0.26 | Feas 0.43 1.00 | Pen 74.25 0.10
It   2000   1256 | T(s) 2.50 | Feas 33 13335.79 13404.70 | Inf 45 13052.89 13133.60 | Div 0.31 0.27 | Feas 0.15 1.00 | Pen 75.74 0.10
It   2500   1756 | T(s) 3.25 | Feas 36 13335.79 13390.98 | Inf 63 12812.77 12947.08 | Div 0.30 0.26 | Feas 0.11 1.00 | Pen 65.66 0.10
It   3000   2256 | T(s) 3.99 | Feas 54 13335.79 13369.75 | Inf 34 12713.22 12888.53 | Div 0.26 0.32 | Feas 0.26 1.00 | Pen 56.93 0.10
It   3500   2756 | T(s) 4.73 | Feas 47 13335.79 13377.88 | Inf 63 12947.21 13002.75 | Div 0.28 0.22 | Feas 0.21 1.00 | Pen 69.68 0.10
It   4000   3256 | T(s) 5.46 | Feas 45 13335.79 13415.91 | Inf 55 12986.63 13132.89 | Div 0.31 0.29 | Feas 0.13 1.00 | Pen 72.50 0.10
It   4500   3756 | T(s) 6.25 | Feas 63 13335.79 13365.00 | Inf 42 12814.54 12967.54 | Div 0.26 0.31 | Feas 0.19 1.00 | Pen 62.86 0.10
It   5000   4256 | T(s) 6.99 | Feas 32 13335.79 13426.96 | Inf 62 12567.59 12776.64 | Div 0.32 0.26 | Feas 0.26 1.00 | Pen 54.50 0.10
It   5500    289 | T(s) 7.78 | Feas 39 13332.34 13433.97 | Inf 59 12760.67 12894.59 | Div 0.32 0.26 | Feas 0.25 1.00 | Pen 65.39 0.10
It   6000    789 | T(s) 8.55 | Feas 56 13332.34 13374.97 | Inf 39 12803.94 13063.97 | Div 0.27 0.32 | Feas 0.44 1.00 | Pen 66.70 0.10
It   6500   1289 | T(s) 9.29 | Feas 57 13332.34 13386.50 | Inf 30 12850.64 13003.76 | Div 0.28 0.31 | Feas 0.24 1.00 | Pen 68.04 0.10
It   7000   1789 | T(s) 10.03 | Feas 57 13332.34 13401.32 | Inf 59 12946.84 13018.19 | Div 0.29 0.27 | Feas 0.13 1.00 | Pen 70.79 0.10
It   7500   2289 | T(s) 10.78 | Feas 28 13332.34 13457.75 | Inf 41 13002.69 13088.42 | Div 0.36 0.28 | Feas 0.11 1.00 | Pen 73.65 0.10
It   8000   2789 | T(s) 11.54 | Feas 36 13332.34 13421.40 | Inf 28 12704.11 13025.29 | Div 0.34 0.34 | Feas 0.27 1.00 | Pen 63.85 0.10
It   8500   3289 | T(s) 12.27 | Feas 42 13332.34 13421.40 | Inf 26 12794.40 13007.76 | Div 0.32 0.33 | Feas 0.22 1.00 | Pen 66.43 0.10
It   9000   3789 | T(s) 13.01 | Feas 40 13332.34 13389.25 | Inf 59 12794.40 12862.49 | Div 0.31 0.20 | Feas 0.22 1.00 | Pen 66.43 0.10
It   9500     96 | T(s) 13.74 | Feas 57 13329.42 13361.45 | Inf 65 12525.48 12809.10 | Div 0.27 0.26 | Feas 0.28 1.00 | Pen 58.75 0.10
It  10000    596 | T(s) 14.52 | Feas 43 13329.42 13410.23 | Inf 46 12978.34 13077.01 | Div 0.31 0.28 | Feas 0.11 1.00 | Pen 71.91 0.10
It  10500   1096 | T(s) 15.26 | Feas 25 13329.42 13447.06 | Inf 53 12324.04 12641.87 | Div 0.35 0.28 | Feas 0.26 1.00 | Pen 52.99 0.10
It  11000   1596 | T(s) 16.02 | Feas 52 13329.42 13354.55 | Inf 65 12694.97 12814.52 | Div 0.25 0.24 | Feas 0.19 1.00 | Pen 63.59 0.10
It  11500   2096 | T(s) 16.76 | Feas 33 13329.42 13388.30 | Inf 32 12739.49 12948.84 | Div 0.31 0.30 | Feas 0.22 1.00 | Pen 64.86 0.10
It  12000   2596 | T(s) 17.48 | Feas 29 13329.42 13393.67 | Inf 51 12831.20 12976.82 | Div 0.31 0.27 | Feas 0.04 1.00 | Pen 67.48 0.10
It  12500   3096 | T(s) 18.21 | Feas 35 13329.42 13378.18 | Inf 27 12476.92 12797.83 | Div 0.28 0.31 | Feas 0.28 1.00 | Pen 57.36 0.10
It  13000   3596 | T(s) 18.94 | Feas 65 13329.42 13349.68 | Inf 25 12517.07 12774.59 | Div 0.24 0.29 | Feas 0.16 1.00 | Pen 58.51 0.10
It  13500   4096 | T(s) 19.72 | Feas 51 13329.42 13387.27 | Inf 60 12926.62 12994.69 | Div 0.28 0.24 | Feas 0.20 1.00 | Pen 70.21 0.10
It  14000   4596 | T(s) 20.43 | Feas 44 13329.42 13355.16 | Inf 31 12642.41 12959.34 | Div 0.27 0.33 | Feas 0.31 1.00 | Pen 62.09 0.10
It  14500   5096 | T(s) 21.16 | Feas 46 13329.42 13385.80 | Inf 58 13035.59 13124.97 | Div 0.27 0.29 | Feas 0.15 1.00 | Pen 75.99 0.10
It  15000   5596 | T(s) 21.86 | Feas 31 13329.42 13399.39 | Inf 45 12857.83 13028.27 | Div 0.30 0.32 | Feas 0.48 1.00 | Pen 65.89 0.10
It  15500   6096 | T(s) 22.61 | Feas 41 13329.42 13382.25 | Inf 30 12514.65 12801.13 | Div 0.29 0.32 | Feas 0.26 1.00 | Pen 57.12 0.10
It  16000   6596 | T(s) 23.39 | Feas 25 13329.42 13487.74 | Inf 42 12973.37 13093.10 | Div 0.36 0.29 | Feas 0.07 1.00 | Pen 71.32 0.10
It  16500   7096 | T(s) 24.12 | Feas 41 13329.42 13394.40 | Inf 61 13013.71 13083.49 | Div 0.30 0.28 | Feas 0.15 1.00 | Pen 74.20 0.10
It  17000   7596 | T(s) 24.84 | Feas 55 13329.42 13382.47 | Inf 29 12872.30 13022.84 | Div 0.29 0.34 | Feas 0.21 1.00 | Pen 64.33 0.10
It  17500   8096 | T(s) 25.57 | Feas 57 13329.42 13388.65 | Inf 52 12855.44 12964.29 | Div 0.29 0.30 | Feas 0.24 1.00 | Pen 64.33 0.10
It  18000   8596 | T(s) 26.36 | Feas 43 13329.42 13427.19 | Inf 35 12924.97 13086.17 | Div 0.32 0.33 | Feas 0.12 1.00 | Pen 66.93 0.10
It  18500   9096 | T(s) 27.14 | Feas 54 13329.42 13397.60 | Inf 64 12811.92 12976.49 | Div 0.29 0.29 | Feas 0.20 1.00 | Pen 66.93 0.10
It  19000   9596 | T(s) 27.93 | Feas 38 13329.42 13407.40 | Inf 51 13099.34 13209.08 | Div 0.32 0.27 | Feas 0.15 1.00 | Pen 80.32 0.10
It  19500  10096 | T(s) 28.66 | Feas 45 13329.42 13390.10 | Inf 64 12636.10 12834.22 | Div 0.29 0.28 | Feas 0.29 1.00 | Pen 59.19 0.10
It  20000  10596 | T(s) 29.43 | Feas 53 13329.42 13408.22 | Inf 29 12677.53 12915.85 | Div 0.31 0.33 | Feas 0.17 1.00 | Pen 60.37 0.10
It  20500  11096 | T(s) 30.19 | Feas 37 13329.42 13384.07 | Inf 57 12989.17 13068.49 | Div 0.30 0.29 | Feas 0.25 1.00 | Pen 72.45 0.10
It  21000  11596 | T(s) 30.94 | Feas 59 13329.42 13364.45 | Inf 35 12707.10 12856.15 | Div 0.27 0.30 | Feas 0.22 1.00 | Pen 61.58 0.10
It  21500  12096 | T(s) 31.70 | Feas 58 13329.42 13360.83 | Inf 40 13009.46 13131.30 | Div 0.26 0.27 | Feas 0.12 1.00 | Pen 73.90 0.10
It  22000  12596 | T(s) 32.42 | Feas 42 13329.42 13394.67 | Inf 32 13030.15 13193.45 | Div 0.30 0.32 | Feas 0.12 1.00 | Pen 75.37 0.10
It  22500  13096 | T(s) 33.17 | Feas 29 13329.42 13426.09 | Inf 34 12889.80 13015.62 | Div 0.33 0.33 | Feas 0.35 1.00 | Pen 65.35 0.10
It  23000  13596 | T(s) 33.93 | Feas 34 13329.42 13378.03 | Inf 61 12846.00 12949.63 | Div 0.30 0.29 | Feas 0.16 1.00 | Pen 65.35 0.10
It  23500  14096 | T(s) 34.66 | Feas 42 13329.42 13363.63 | Inf 37 12891.74 13028.98 | Div 0.27 0.33 | Feas 0.25 1.00 | Pen 66.66 0.10
It  24000  14596 | T(s) 35.40 | Feas 46 13329.42 13370.84 | Inf 65 12849.00 13006.45 | Div 0.27 0.28 | Feas 0.18 1.00 | Pen 67.99 0.10
It  24500  15096 | T(s) 36.14 | Feas 42 13329.42 13383.77 | Inf 55 12896.59 12984.41 | Div 0.29 0.25 | Feas 0.08 1.00 | Pen 69.35 0.10
It  25000  15596 | T(s) 36.89 | Feas 60 13329.42 13372.19 | Inf 44 12985.03 13065.08 | Div 0.27 0.30 | Feas 0.23 1.00 | Pen 72.15 0.10
It  25500  16096 | T(s) 37.64 | Feas 40 13329.42 13383.37 | Inf 32 13025.83 13164.37 | Div 0.30 0.33 | Feas 0.14 1.00 | Pen 75.07 0.10
It  26000  16596 | T(s) 38.37 | Feas 25 13329.42 13443.77 | Inf 28 12747.24 13071.31 | Div 0.34 0.35 | Feas 0.22 1.00 | Pen 65.08 0.10
It  26500  17096 | T(s) 39.14 | Feas 30 13329.42 13419.87 | Inf 59 12747.24 12904.21 | Div 0.32 0.27 | Feas 0.23 1.00 | Pen 65.08 0.10
It  27000  17596 | T(s) 39.89 | Feas 28 13329.42 13410.20 | Inf 56 12792.80 12917.39 | Div 0.33 0.26 | Feas 0.05 1.00 | Pen 66.38 0.10
It  27500  18096 | T(s) 40.60 | Feas 41 13329.42 13381.73 | Inf 26 12567.57 12922.63 | Div 0.28 0.36 | Feas 0.27 1.00 | Pen 57.56 0.10
It  28000  18596 | T(s) 41.35 | Feas 36 13329.42 13403.97 | Inf 51 12642.87 12908.92 | Div 0.31 0.31 | Feas 0.27 1.00 | Pen 59.88 0.10
It  28500  19096 | T(s) 42.13 | Feas 39 13329.42 13397.33 | Inf 51 12684.79 12832.46 | Div 0.31 0.28 | Feas 0.16 1.00 | Pen 61.08 0.10
It  29000  19596 | T(s) 42.86 | Feas 39 13329.42 13407.23 | Inf 32 12753.05 12994.05 | Div 0.31 0.33 | Feas 0.34 1.00 | Pen 63.55 0.10
----- GENETIC ALGORITHM FINISHED AFTER 29406 ITERATIONS. TIME SPENT: 43.4592
----- WRITING BEST SOLUTION IN : baseline_results/cvrp_hgs/Vrp-Set-X-n120/Vrp-Set-X-n120-hgs/0.hgs1.tour
